25
2 49 4 
2 41 34 
2 22 31 
2 10 55 
2 46 16 
3 24 25 9 
2 1 13 
3 52 14 53 
2 19 28 
3 45 18 8 
2 43 47 
3 37 21 29 
3 54 48 57 
3 42 39 2 
2 40 7 
1 36 
3 3 35 12 
3 6 17 33 
2 30 60 
3 26 58 15 
2 20 38 
3 56 44 59 
3 27 5 51 
2 23 11 
2 50 32 
